N = 13;
H = 5;
T = 2;

avail = array3d(1..N, 1..H, 1..T, [4, 0, 9, 7, 8, 6, 1, 2, 7, 9, 6, 7, 7, 4, 4, 9, 8, 6, 7, 3, 0, 10, 0, 3, 4, 1, 0, 4, 9, 9, 1, 5, 7, 5, 10, 4, 9, 2, 3, 4, 9, 9, 4, 6, 9, 6, 6, 9, 9, 0, 4, 6, 4, 9, 8, 6, 9, 8, 8, 9, 4, 5, 6, 3, 1, 9, 10, 8, 9, 6, 7, 4, 1, 5, 5, 6, 4, 5, 2, 10, 9, 5, 3, 7, 5, 0, 0, 3, 5, 10, 9, 0, 9, 1, 6, 0, 2, 1, 4, 3, 6, 8, 10, 6, 1, 2, 1, 8, 7, 1, 9, 7, 1, 2, 7, 5, 6, 9, 5, 9, 3, 2, 10, 7, 9, 10, 8, 0, 7, 9]);

r = array2d(1..H, 1..T, [3, 4, 6, 1, 5, 1, 3, 4, 4, 3]);
